(set-logic ALL)
(declare-fun var0 () String)
(assert (str.in_re var0 (re.++ (re.+ (re.union (str.to_re "0") (str.to_re "11"))) (re.++ (re.union (re.union (str.to_re "222") (str.to_re "33")) (re.union (str.to_re "4") (str.to_re "5"))) (re.++ (re.* (re.union (str.to_re "66") (str.to_re "77"))) (re.++ (re.+ (re.union (str.to_re "8") (str.to_re "99"))) (re.++ (re.+ (re.* (str.to_re "aaa"))) (re.++ (re.union (re.union (str.to_re "bbb") (str.to_re "ccc")) (re.union (str.to_re "dd") (str.to_re "eee"))) (re.++ (re.* (re.+ (str.to_re "fff"))) (re.++ (re.* (re.* (str.to_re "g"))) (re.++ (re.* (re.+ (str.to_re "hh"))) (re.++ (re.union (re.union (str.to_re "i") (str.to_re "jj")) (re.union (str.to_re "kkk") (str.to_re "l"))) (re.++ (re.union (re.+ (str.to_re "m")) (re.+ (str.to_re "n"))) (re.++ (re.union (re.+ (str.to_re "oo")) (re.+ (str.to_re "ppp"))) (re.++ (re.* (re.* (str.to_re "qq"))) (re.++ (re.+ (re.union (str.to_re "r") (str.to_re "ss"))) (re.++ (re.+ (re.+ (str.to_re "t"))) (re.++ (re.* (re.* (str.to_re "uuu"))) (re.++ (re.+ (re.union (str.to_re "v") (str.to_re "w"))) (re.++ (re.* (re.union (str.to_re "xxx") (str.to_re "y"))) (re.++ (re.* (re.union (str.to_re "zz") (str.to_re "AA"))) (re.++ (re.* (re.union (str.to_re "BBB") (str.to_re "CCC"))) (re.++ (re.+ (re.* (str.to_re "D"))) (re.++ (re.* (re.union (str.to_re "EE") (str.to_re "FFF"))) (re.++ (re.union (re.+ (str.to_re "GGG")) (re.+ (str.to_re "H"))) (re.++ (re.+ (re.+ (str.to_re "I"))) (re.++ (re.union (re.* (str.to_re "J")) (re.* (str.to_re "KK"))) (re.++ (re.* (re.+ (str.to_re "L"))) (re.++ (re.union (re.* (str.to_re "MMM")) (re.* (str.to_re "NN"))) (re.++ (re.* (re.union (str.to_re "O") (str.to_re "PPP"))) (re.++ (re.union (re.+ (str.to_re "QQ")) (re.+ (str.to_re "R"))) (re.++ (re.* (re.* (str.to_re "S"))) (re.+ (re.union (str.to_re "TTT") (str.to_re "UU")))))))))))))))))))))))))))))))))))
(assert (not (str.in_re var0 (re.++ (re.* (re.+ (str.to_re "000"))) (re.++ (re.union (re.union (str.to_re "11") (str.to_re "2")) (re.union (str.to_re "333") (str.to_re "4"))) (re.++ (re.* (re.* (str.to_re "5"))) (re.++ (re.union (re.* (str.to_re "66")) (re.* (str.to_re "77"))) (re.++ (re.union (re.+ (str.to_re "8")) (re.+ (str.to_re "99"))) (re.++ (re.union (re.union (str.to_re "a") (str.to_re "bbb")) (re.union (str.to_re "c") (str.to_re "ddd"))) (re.++ (re.union (re.union (str.to_re "eee") (str.to_re "f")) (re.union (str.to_re "gg") (str.to_re "hh"))) (re.++ (re.union (re.union (str.to_re "ii") (str.to_re "j")) (re.union (str.to_re "k") (str.to_re "ll"))) (re.++ (re.union (re.+ (str.to_re "mmm")) (re.+ (str.to_re "n"))) (re.++ (re.union (re.+ (str.to_re "o")) (re.+ (str.to_re "p"))) (re.++ (re.+ (re.+ (str.to_re "qqq"))) (re.++ (re.+ (re.union (str.to_re "rrr") (str.to_re "ss"))) (re.++ (re.+ (re.* (str.to_re "ttt"))) (re.++ (re.union (re.union (str.to_re "u") (str.to_re "v")) (re.union (str.to_re "www") (str.to_re "xxx"))) (re.++ (re.+ (re.union (str.to_re "yy") (str.to_re "zz"))) (re.++ (re.union (re.* (str.to_re "A")) (re.* (str.to_re "BBB"))) (re.++ (re.* (re.* (str.to_re "CCC"))) (re.++ (re.union (re.union (str.to_re "DDD") (str.to_re "EEE")) (re.union (str.to_re "FFF") (str.to_re "GGG"))) (re.++ (re.+ (re.union (str.to_re "HHH") (str.to_re "II"))) (re.++ (re.+ (re.* (str.to_re "J"))) (re.++ (re.+ (re.* (str.to_re "KK"))) (re.++ (re.+ (re.+ (str.to_re "LL"))) (re.++ (re.* (re.* (str.to_re "M"))) (re.++ (re.union (re.union (str.to_re "NNN") (str.to_re "OO")) (re.union (str.to_re "PP") (str.to_re "QQQ"))) (re.++ (re.+ (re.+ (str.to_re "R"))) (re.++ (re.+ (re.+ (str.to_re "SS"))) (re.++ (re.* (re.union (str.to_re "TT") (str.to_re "UU"))) (re.++ (re.union (re.union (str.to_re "VVV") (str.to_re "WWW")) (re.union (str.to_re "X") (str.to_re "Y"))) (re.++ (re.+ (re.* (str.to_re "ZZ"))) (re.++ (re.union (re.union (str.to_re "!!") (str.to_re """""")) (re.union (str.to_re "##") (str.to_re "$$"))) (re.+ (re.+ (str.to_re "%"))))))))))))))))))))))))))))))))))))
(check-sat)